s td 9 12 20
b 1 1 3 4 6 7 8 10 11 16 17 19 20
b 2 3 4 6 8 11 13 16 17 20
b 3 2 3 4 6 8 11 13 16
b 4 1 3 4 5 7 8 10 16 17 19
b 5 1 3 4 6 7 8 10 11 14 16 19
b 6 1 3 6 8 9 10 14 16 19
b 7 1 4 7 8 11 14 15 16 19
b 8 1 3 4 6 7 8 10 12 17 20
b 9 1 3 7 8 10 11 18 19 20
1 2
1 4
1 5
1 8
1 9
2 3
5 6
5 7
